python/temp
c --- [ banner ] -------------------------------------------------------------
c 
c CaDiCaL Radically Simplified CDCL SAT Solver
c Copyright (c) 2016-2019 Armin Biere, JKU Linz
c 
c Version 1.2.1 dummy
c dummy dummy
c dummy
c 
c --- [ parsing input ] ------------------------------------------------------
c 
c reading DIMACS file from '/home/ziwei/Workspace/neuro-cadical/data/sha1/SAT/sat_p_cnf_320_1120.cnf'
c opening file to read '/home/ziwei/Workspace/neuro-cadical/data/sha1/SAT/sat_p_cnf_320_1120.cnf'
c found 'p cnf 320 1120' header
c parsed 1120 clauses in 0.00 seconds process time
c closing file '/home/ziwei/Workspace/neuro-cadical/data/sha1/SAT/sat_p_cnf_320_1120.cnf'
c after reading 16218 bytes 0.0 MB
c 
c --- [ options ] ------------------------------------------------------------
c 
c all options are set to their default value
c 
c --- [ solving ] ------------------------------------------------------------
c 
c time measured in process time since initialization
c 
c  seconds   reductions  redundant irredundant
c          MB    restarts       trail    variables
c           level   conflicts       glue     remaining
c 
c *  0.00 104  0 0   0    0    0  0% 0 1120 320 100%
c {  0.00 104  0 0   0    0    0  0% 0 1120 320 100%
c -  0.00 104 34 1   4  302  281 43% 19 1120 320 100%
c -  0.01 104 31 2  10  902  648 44% 16 1120 320 100%
c }  0.01 104 32 2  15 1001  744 44% 17 1120 320 100%
c [  0.01 104  0 2  15 1001  744  0% 0 1120 320 100%
c O  0.01 104 46 2  15 1002  745 60% 17 1120 320 100%
c -  0.02 104 32 3  15 1802 1080 44% 17 1120 320 100%
c ]  0.04 104 30 3  16 3001 2189 45% 17 1120 320 100%
c {  0.04 104 32 3  16 3001 2189 44% 17 1120 320 100%
c -  0.04 105 32 4  16 3005 1509 44% 17 1120 320 100%
c F  0.04 105 32 4  16 3006 1510 44% 17 1120 320 100%
c s  0.05 105 32 4  26 3616 2095 45% 16 1120 320 100%
c w  0.06 105 32 4  26 3616 2095 45% 16 1120 320 100%
c -  0.07 105 30 5  28 4506 1950 45% 15 1120 320 100%
c #  0.09 105 28 5  46 6008 3340 45% 15 1120 320 100%
c -  0.10 105 29 6  58 6309 2382 45% 15 1120 320 100%
c }  0.11 105 28 6  58 7001 3033 45% 14 1120 320 100%
c [  0.11 105 30 6  58 7001 3033 45% 17 1120 320 100%
c -  0.13 105 28 7  59 8409 2873 45% 16 1120 320 100%
c 
c  seconds   reductions   redundant  irredundant
c          MB    restarts        trail     variables
c           level    conflicts       glue      remaining
c 
c I  0.16 105 26 7  60 10009 4379 46% 15 1120 320 100%
c -  0.17 105 27 8  61 10809 3327 46% 16 1120 320 100%
c s  0.17 105 27 8  61 10847 3363 46% 16 1120 320 100%
c w  0.18 105 27 8  61 10847 3363 46% 16 1120 320 100%
c -  0.22 105 26 9  63 13509 3739 46% 16 1120 320 100%
c ]  0.25 105 26 9  63 15002 5085 46% 16 1120 320 100%
c {  0.25 105 28 9  63 15002 5085 45% 14 1120 320 100%
c B  0.25 105 28 9  63 15010 5092 45% 14 1120 320 100%
c -  0.28 106 28 10 149 16510 4303 45% 14 1120 320 100%
c -  0.34 106 27 11 233 19811 4788 45% 14 1120 320 100%
c W  0.37 106 28 11 298 21011 5922 45% 14 1120 320 100%
c s  0.39 106 28 11 311 21693 6564 45% 14 1120 320 100%
c w  0.40 106 28 11 311 21693 6563 45% 14 1120 320 100%
c -  0.44 106 28 12 410 23411 5293 46% 14 1120 320 100%
c -  0.52 106 28 13 499 27314 5746 46% 14 1120 320 100%
c F  0.53 106 28 13 504 28012 6411 46% 14 1120 320 100%
c }  0.59 106 27 13 566 31002 9238 46% 14 1120 320 100%
c [  0.59 106 26 13 566 31002 9238 46% 16 1120 320 100%
c -  0.60 106 26 14 566 31515 6268 46% 16 1120 320 100%
c B  0.68 106 24 14 569 36013 10454 46% 15 1120 320 100%
c 
c  seconds   reductions    redundant  irredundant
c          MB     restarts        trail     variables
c           level     conflicts       glue      remaining
c 
c -  0.68 106 24 15 569 36015 6799 46% 15 1120 320 100%
c s  0.68 106 24 15 569 36152 6927 46% 15 1120 320 100%
c w  0.70 106 24 15 569 36152 6927 46% 15 1120 320 100%
c -  0.80 106 24 16 572 40816 7140 47% 15 1120 320 100%
c W  0.90 106 24 16 573 45015 10996 47% 15 1120 320 100%
c -  0.92 107 25 17 573 45917 7657 47% 15 1120 320 100%
c -  1.03 107 29 18 574 51319 8139 47% 17 1120 320 100%
c s  1.11 107 30 18 574 54226 10747 47% 18 1120 320 100%
c w  1.12 107 30 18 574 54226 10747 47% 18 1120 320 100%
c O  1.15 107 30 18 575 55017 11459 47% 18 1120 320 100%
c -  1.19 107 30 19 577 57020 8424 47% 18 1120 320 100%
c ]  1.32 107 30 19 581 63002 13734 47% 18 1120 320 100%
c {  1.32 107 27 19 581 63002 13734 46% 14 1120 320 100%
c -  1.32 107 27 20 581 63021 8862 46% 14 1120 320 100%
c B  1.39 107 28 20 815 66018 11707 46% 14 1120 320 100%
c -  1.50 108 28 21 966 69326 9678 46% 14 1120 320 100%
c s  1.73 108 29 21 1323 75916 15860 46% 14 1120 320 100%
c w  1.77 108 29 21 1323 75916 15860 46% 14 1120 320 100%
c e  1.78 108 29 21 1323 75916 3161 46% 14 1705 281 88%
c -  1.78 108 29 22 1326 75927 2217 46% 14 1705 281 88%
c 
c  seconds   reductions     redundant  irredundant
c          MB     restarts         trail     variables
c           level      conflicts       glue      remaining
c 
c W  1.83 108 29 22 1487 78020 4205 46% 14 1705 281 88%
c -  1.93 108 29 23 1831 82828 8006 45% 14 1705 281 88%
c -  2.18 109 28 24 2248 90028 10134 44% 14 1705 281 88%
c #  2.21 109 28 24 2310 91024 11080 44% 14 1705 281 88%
c -  2.45 110 28 25 2548 97528 10977 43% 14 1705 281 88%
c B  2.68 110 28 25 2904 105025 18020 43% 14 1705 281 88%
c -  2.69 109 28 26 2926 105329 11861 43% 14 1705 281 88%
c s  2.91 109 28 26 3480 112334 18515 43% 15 1705 281 88%
c w  2.96 109 28 26 3480 112334 18515 43% 15 1705 281 88%
c -  3.00 110 28 27 3541 113429 12668 43% 15 1705 281 88%
c W  3.25 110 28 27 3886 120028 18834 43% 15 1705 281 88%
c -  3.32 109 28 28 3887 121831 13094 43% 15 1705 281 88%
c }  3.48 109 28 28 4113 127002 17942 42% 15 1705 281 88%
c [  3.48 109 30 28 4113 127002 17942 47% 18 1705 281 88%
c -  3.57 110 30 29 4113 130534 13652 46% 18 1705 281 88%
c B  3.70 110 29 29 4117 136029 18662 46% 18 1705 281 88%
c -  3.84 109 29 30 4120 139534 14042 45% 18 1705 281 88%
c -  4.14 110 28 31 4121 148834 14180 44% 18 1705 281 88%
c W  4.26 110 28 31 4122 153031 17845 44% 18 1705 281 88%
c -  4.37 109 28 32 4122 158436 14593 44% 18 1705 281 88%
c 
c  seconds   reductions       redundant  irredundant
c          MB     restarts           trail     variables
c           level      conflicts         glue      remaining
c 
c -  4.74 110 29 33 4122 168337 15291 44% 18 1705 281 88%
c I  4.81 110 29 33 4125 171033 17724 44% 18 1705 281 88%
c -  5.03 111 29 34 4129 178538 15832 44% 18 1705 281 88%
c -  5.42 111 29 35 4135 189039 16114 43% 18 1705 281 88%
c B  5.44 111 29 35 4136 190036 17005 43% 18 1705 281 88%
c -  5.68 111 29 36 4137 199839 16678 43% 18 1705 281 88%
c W  5.95 111 29 36 4143 210037 25919 43% 18 1705 281 88%
c -  5.98 111 29 37 4144 210939 17394 43% 19 1705 281 88%
c -  6.28 111 30 38 4150 222339 17974 43% 19 1705 281 88%
c O  6.61 111 30 38 4152 231038 25919 43% 19 1705 281 88%
c -  6.70 111 30 39 4152 234039 18576 43% 19 1705 281 88%
c -  7.00 111 30 40 4153 246041 19385 43% 19 1705 281 88%
c B  7.18 111 30 40 4154 253042 25876 43% 19 1705 281 88%
c ]  7.23 111 30 40 4154 255002 27649 43% 19 1705 281 88%
c {  7.23 111 28 40 4154 255002 27649 42% 15 1705 281 88%
c -  7.41 113 28 41 4434 258341 20167 42% 15 1705 281 88%
c -  7.98 112 28 42 5115 270943 20980 42% 15 1705 281 88%
c F  8.23 112 27 42 5320 276045 25672 42% 15 1705 281 88%
c -  8.60 114 27 43 5788 283845 21726 42% 15 1705 281 88%
c -  9.12 116 27 44 6428 297049 22465 42% 15 1705 281 88%
c 
c  seconds   reductions       redundant  irredundant
c          MB     restarts           trail     variables
c           level      conflicts         glue      remaining
c 
c B  9.26 116 27 44 6748 300046 25308 42% 15 1705 281 88%
c -  9.65 116 27 45 7068 310550 23049 42% 15 1705 281 88%
c - 10.19 116 27 46 7631 324350 23762 42% 15 1705 281 88%
c s 10.20 116 27 46 7631 324350 23760 42% 15 1705 281 88%
c w 10.34 116 27 46 7631 324350 23760 42% 15 1705 281 88%
c W 10.37 116 27 46 7631 325048 24412 42% 15 1705 281 88%
c - 11.00 111 27 47 8473 338450 24679 42% 15 1705 281 88%
c # 11.57 113 27 47 9232 351051 36469 42% 15 1705 281 88%
c - 11.65 111 27 48 9275 352850 25417 42% 15 1705 281 88%
c - 12.33 111 27 49 9970 367551 26062 41% 15 1705 281 88%
c B 12.79 113 26 49 10496 378053 35704 41% 15 1705 281 88%
c - 13.04 114 26 50 10829 382551 26724 41% 15 1705 281 88%
c - 13.79 112 26 51 11583 397855 27667 41% 15 1705 281 88%
c W 14.14 112 26 51 11790 406054 35197 41% 15 1705 281 88%
c - 14.45 114 26 52 11858 413456 28049 41% 14 1705 281 88%
c - 15.50 115 26 53 12771 429356 29147 41% 14 1705 281 88%
c F 15.95 115 26 53 13540 435055 34555 41% 15 1705 281 88%
c - 16.52 115 26 54 14050 445559 29904 41% 15 1705 281 88%
c - 17.42 116 26 55 14871 462063 30615 41% 14 1705 281 88%
c B 17.63 112 26 55 15290 465056 33457 41% 14 1705 281 88%
c 
c  seconds   reductions        redundant  irredundant
c          MB      restarts           trail     variables
c           level       conflicts         glue      remaining
c 
c - 18.32 116 25 56 15927 478863 31162 41% 14 1705 281 88%
c - 19.32 116 26 57 17249 495963 32257 41% 14 1705 281 88%
c W 19.34 116 26 57 17272 496058 32348 41% 14 1705 281 88%
c } 20.30 115 26 57 18704 511003 46397 41% 15 1705 281 88%
c [ 20.30 115 30 57 18704 511003 46397 43% 19 1705 281 88%
c - 20.41 116 30 58 18704 513363 33143 43% 19 1705 281 88%
c W 20.96 116 30 58 18704 528060 46697 43% 18 1705 281 88%
c - 21.11 114 30 59 18704 531065 33261 43% 18 1705 281 88%
c - 21.80 117 30 60 18710 549066 33220 42% 18 1705 281 88%
c I 22.25 117 29 60 18717 561061 44135 42% 18 1705 281 88%
c - 22.47 114 29 61 18719 567366 33523 42% 18 1705 281 88%
c s 22.49 114 29 61 18719 567366 33523 42% 18 1705 281 88%
c w 22.73 114 29 61 18719 567366 33523 42% 18 1705 281 88%
c - 23.36 117 29 62 18726 585967 33830 42% 18 1705 281 88%
c B 23.67 117 28 62 18732 595063 41787 42% 18 1705 281 88%
c - 24.06 117 28 63 18734 604867 34130 42% 18 1705 281 88%
c - 24.77 117 28 64 18735 624067 35100 42% 18 1705 281 88%
c W 24.99 117 27 64 18739 630065 40530 42% 18 1705 281 88%
c - 25.53 120 27 65 18747 643568 35941 42% 18 1705 281 88%
c - 26.35 115 27 66 18754 663370 35932 42% 18 1705 281 88%
c 
c  seconds   reductions        redundant  irredundant
c          MB      restarts           trail     variables
c           level       conflicts         glue      remaining
c 
c O 26.45 115 27 66 18756 666066 38268 42% 18 1705 281 88%
c - 27.08 114 27 67 18764 683470 36765 42% 18 1705 281 88%
c B 27.84 114 27 67 18766 703072 54503 42% 18 1705 281 88%
c - 27.90 118 27 68 18766 703870 37741 42% 18 1705 281 88%
c - 28.86 118 26 69 18767 724573 38371 42% 17 1705 281 88%
c W 29.81 118 26 69 18767 741073 53150 42% 17 1705 281 88%
c - 30.05 118 26 70 18768 745574 39296 42% 17 1705 281 88%
c - 30.92 119 27 71 18768 766874 40141 42% 18 1705 281 88%
c I 31.64 119 28 71 18768 780077 51719 42% 18 1705 281 88%
c - 32.02 118 28 72 18768 788476 39972 42% 18 1705 281 88%
c - 32.95 119 29 73 18770 810377 40851 42% 18 1705 281 88%
c B 33.34 119 29 73 18775 820078 49507 42% 18 1705 281 88%
c - 33.83 119 29 74 18782 832578 41612 42% 18 1705 281 88%
c s 33.87 119 29 74 18782 832578 41612 42% 18 1705 281 88%
c w 34.29 119 29 74 18782 832578 41612 42% 18 1705 281 88%
c - 35.20 116 28 75 18791 855079 42069 42% 18 1705 281 88%
c W 35.45 116 28 75 18796 861079 47505 42% 18 1705 281 88%
c - 36.10 120 29 76 18799 877880 42740 42% 18 1705 281 88%
c - 37.18 120 29 77 18806 900981 43213 42% 19 1705 281 88%
c O 37.27 120 29 77 18806 903081 45073 42% 19 1705 281 88%
c 
c  seconds   reductions        redundant  irredundant
c          MB      restarts           trail     variables
c           level       conflicts         glue      remaining
c 
c - 38.11 117 29 78 18814 924381 43142 42% 18 1705 281 88%
c B 39.05 117 28 78 18827 946082 62155 42% 18 1705 281 88%
c - 39.15 121 28 79 18828 948081 44289 42% 18 1705 281 88%
c - 40.09 121 28 80 18830 972081 45242 42% 18 1705 281 88%
c W 40.88 121 28 80 18831 990085 61408 43% 18 1705 281 88%
c - 41.13 121 29 81 18831 996382 45751 43% 19 1705 281 88%
c - 42.21 117 29 82 18838 1020984 45850 43% 19 1705 281 88%
c ] 42.30 117 29 82 18840 1023003 47622 42% 19 1705 281 88%
c { 42.30 117 26 82 18840 1023003 47622 41% 15 1705 281 88%
c # 43.24 119 26 82 19826 1035088 58917 41% 15 1705 281 88%
c - 44.49 122 26 83 20904 1045884 48169 41% 15 1705 281 88%
c - 46.65 126 26 84 22567 1071085 49716 41% 15 1705 281 88%
c B 47.42 126 26 84 23189 1081089 59089 41% 15 1705 281 88%
c - 48.91 130 26 85 24186 1096585 50929 41% 15 1705 281 88%
c - 51.16 130 26 86 25968 1122385 51899 41% 15 1705 281 88%
c s 51.23 130 26 86 25968 1122385 51898 41% 15 1705 281 88%
c w 51.93 130 26 86 25968 1122385 51897 41% 15 1705 281 88%
c W 52.39 130 26 86 26359 1128090 57242 41% 15 1705 281 88%
c - 54.79 130 26 87 27481 1148485 52593 41% 15 1705 281 88%
c - 57.24 118 25 88 28697 1174885 53449 41% 15 1705 281 88%
c 
c  seconds   reductions         redundant  irredundant
c          MB      restarts            trail     variables
c           level        conflicts         glue      remaining
c 
c F 57.35 118 26 88 28783 1176094 54586 41% 15 1705 281 88%
c - 60.32 124 26 89 30463 1201586 54476 41% 15 1705 281 88%
c B 62.51 124 25 89 31633 1225096 76157 41% 15 1705 281 88%
c - 63.05 119 25 90 32019 1228587 55163 41% 15 1705 281 88%
c - 66.25 124 25 91 33887 1255887 55721 41% 15 1705 281 88%
c W 68.42 123 25 91 34962 1275097 73447 41% 15 1705 281 88%
c - 69.64 119 25 92 35752 1283487 56887 41% 15 1705 281 88%
c - 72.88 119 26 93 37620 1311387 57884 41% 15 1705 281 88%
c # 74.34 121 26 93 38713 1326100 71556 41% 15 1705 281 88%
c - 75.56 125 25 94 39294 1339589 58732 41% 15 1705 281 88%
c - 78.75 120 26 95 41288 1368089 59749 41% 15 1705 281 88%
c B 79.62 120 26 95 41787 1378101 68983 41% 15 1705 281 88%
c - 81.70 121 25 96 42693 1396893 60468 41% 15 1705 281 88%
c - 85.07 120 26 97 44808 1425993 61686 41% 15 1705 281 88%
c W 85.50 120 26 97 45027 1431102 66410 41% 15 1705 281 88%
c - 88.56 126 26 98 46377 1455394 62245 41% 15 1705 281 88%
c s 88.66 119 26 98 46377 1455394 62242 41% 15 1705 281 88%
c w 89.94 119 26 98 46377 1455394 62242 41% 15 1705 281 88%
c - 94.08 120 26 99 47941 1485095 63327 41% 15 1705 281 88%
c F 94.08 120 26 99 47941 1485103 63335 41% 15 1705 281 88%
c 
c  seconds    reductions         redundant  irredundant
c          MB       restarts            trail     variables
c           level         conflicts         glue      remaining
c 
c - 97.62 128 26 100 49742 1515099 64250 41% 15 1705 281 88%
c B 100.54 125 26 100 50934 1540104 87478 41% 15 1705 281 88%
c - 101.38 120 26 101 51202 1545400 65074 41% 15 1705 281 88%
c - 104.47 120 25 102 52863 1576002 65797 41% 15 1705 281 88%
c W 106.45 124 25 102 53639 1596105 84312 41% 15 1705 281 88%
c - 107.67 127 25 103 54069 1606902 66421 41% 15 1705 281 88%
c - 111.28 122 25 104 55772 1638103 67385 41% 15 1705 281 88%
c # 112.70 124 25 104 56694 1653106 81196 41% 15 1705 281 88%
c - 114.33 126 24 105 57006 1669603 67719 41% 15 1705 281 88%
c - 118.26 128 24 106 58924 1701403 69191 41% 15 1705 281 88%
c B 119.36 123 24 106 59817 1711108 78165 41% 15 1705 281 88%
c - 123.17 128 24 107 61556 1733506 70264 41% 15 1705 281 88%
c - 127.81 122 25 108 64178 1765906 71367 41% 15 1705 281 88%
c } 128.18 122 25 108 64386 1770108 75274 41% 15 1705 281 88%
c 1 128.18 122 25 108 64386 1770108 75274 41% 15 1705 281 88%
c 
c --- [ result ] -------------------------------------------------------------
c 
s SATISFIABLE
c 
c --- [ run-time profiling ] -------------------------------------------------
c 
c process time taken by individual solving procedures
c (percentage relative to process time for solving)
c 
c       124.89   97.43% search
c        98.81   77.08% unstable
c        25.67   20.03% stable
c         3.29    2.57% simplify
c         2.92    2.28% vivify
c         0.41    0.32% walk
c         0.26    0.21% subsume
c         0.03    0.03% ternary
c         0.01    0.01% elim
c         0.01    0.00% probe
c         0.00    0.00% lucky
c   =================================
c       128.18  100.00% solve
c 
c last line shows process time for solving
c (percentage relative to total process time)
c 
c --- [ statistics ] ---------------------------------------------------------
c 
c chronological:            290914        16.43 %  of conflicts
c conflicts:               1770108     13809.41    per second
c GLR:                     0.46746                    
c avg glue:               16.14545                    
c avg refocus:             0.00000                    
c refocus time:            0.00000                    
c refocus count:                 0            
c OOM count:                     0            
c decisions:               3786611     29541.07    per second
c eliminated:                   39        12.19 %  of all variables
c learned:                 1725983        97.51 %  per conflict
c minimized:              10270397        19.26 %  learned literals
c propagations:           89648952         0.70 M  per second
c reduced:                 1535707        86.76 %  per conflict
c rephased:                     59     30001.83    interval
c restarts:                  64386        27.49    interval
c stabilizing:                   5        38.53 %  of conflicts
c subsumed:                 102301         2.96 %  of all clauses
c strengthened:                557         0.02 %  of all clauses
c vivified:                    235         0.01 %  of all clauses
c walked:                       19     93163.58    interval
c weakened:                    390         3.00    average size
c 
c seconds are measured in process time for solving
c 
c --- [ resources ] ----------------------------------------------------------
c 
c total process time since initialization:       128.18    seconds
c total real time since initialization:          128.19    seconds
c maximum resident set size of process:          135.54    MB
c 
c --- [ shutting down ] ------------------------------------------------------
c 
c exit 10
